0 0 0 0
0 1 1 4
0 2 0 0
0 3 0 0
0 4 2 3
0 5 2 7
0 6 0 6
0 7 0 1
0 8 1 11
0 9 2 6
0 10 0 4
0 11 1 8
0 12 0 4
0 13 1 16
0 14 2 6
0 15 1 16
0 16 0 20
0 17 0 1
0 18 1 18
0 19 0 23
0 20 1 5
0 21 2 8
0 22 1 10
0 23 0 27
0 24 0 14
0 25 0 19
0 26 2 18
0 27 0 24
0 28 1 30
0 29 0 28
0 30 0 30
0 31 0 32
